(set-info :source |printed by MathSAT|)
(declare-fun |!{$(in_main#0)<N>}| () Int)
(declare-fun |!{$(in_main#0)<N>}.next| () Int)
(declare-fun |!{$(in_main#0)<begin>}| () Int)
(declare-fun |!{$(in_main#0)<begin>}.next| () Int)
(declare-fun |!{$(in_main#0)<end>}| () Int)
(declare-fun |!{$(in_main#0)<end>}.next| () Int)
(declare-fun |!{$(in_main#0)<i>}| () Int)
(declare-fun |!{$(in_main#0)<i>}.next| () Int)
(declare-fun |!{$(in_main#0)<k>}| () Int)
(declare-fun |!{$(in_main#0)<k>}.next| () Int)
(declare-fun |!{$(in_main#0)<k#1>}| () Int)
(declare-fun |!{$(in_main#0)<k#1>}.next| () Int)
(declare-fun |!{$(in_main#0)<array.1>}| () (Array Int Int))
(declare-fun |!{$(in_main#0)<array.1>}.next| () (Array Int Int))
(declare-fun |!{$(in_main#0)<$(in___VERIFIER_nondet_int#0)<h#<__VERIFIER_nondet_int.return>>>}| () Int)
(declare-fun |!{$(in_main#0)<$(in___VERIFIER_nondet_int#2)<h#<__VERIFIER_nondet_int.return>>>}| () Int)
(declare-fun |!{$(in_main#0)<$(in___VERIFIER_nondet_int#3)<h#<__VERIFIER_nondet_int.return>>>}| () Int)
(declare-fun |!{$(in_main#0)<$(in___VERIFIER_nondet_int#5)<h#<__VERIFIER_nondet_int.return>>>}| () Int)
(declare-fun !pc () Int)
(declare-fun !pc.next () Int)
(declare-fun |%{$(in_main#0)<i>}#1| () Int)
(declare-fun |%{$(in_main#0)<k#1>}#1| () Int)
(declare-fun |%{$(in_main#0)<array.1>}#1| () (Array Int Int))
(define-fun .def_44 () Int (! !pc :next !pc.next))
(define-fun .def_47 () Bool (! (= .def_44 2) :init true))
(define-fun .def_199 () Bool (= .def_44 75))
(define-fun .def_174 () Bool (= !pc.next 95))
(define-fun .def_202 () Bool (and .def_174 .def_199))
(define-fun .def_10 () Int (! |!{$(in_main#0)<begin>}| :next |!{$(in_main#0)<begin>}.next|))
(define-fun .def_193 () Bool (= .def_10 |!{$(in_main#0)<i>}.next|))
(define-fun .def_106 () Bool (= .def_10 |!{$(in_main#0)<begin>}.next|))
(define-fun .def_8 () Int (! |!{$(in_main#0)<N>}| :next |!{$(in_main#0)<N>}.next|))
(define-fun .def_104 () Bool (= .def_8 |!{$(in_main#0)<N>}.next|))
(define-fun .def_119 () Bool (and .def_104 .def_106))
(define-fun .def_12 () Int (! |!{$(in_main#0)<end>}| :next |!{$(in_main#0)<end>}.next|))
(define-fun .def_108 () Bool (= .def_12 |!{$(in_main#0)<end>}.next|))
(define-fun .def_120 () Bool (and .def_108 .def_119))
(define-fun .def_194 () Bool (and .def_120 .def_193))
(define-fun .def_16 () Int (! |!{$(in_main#0)<k>}| :next |!{$(in_main#0)<k>}.next|))
(define-fun .def_112 () Bool (= .def_16 |!{$(in_main#0)<k>}.next|))
(define-fun .def_195 () Bool (and .def_112 .def_194))
(define-fun .def_18 () Int (! |!{$(in_main#0)<k#1>}| :next |!{$(in_main#0)<k#1>}.next|))
(define-fun .def_114 () Bool (= .def_18 |!{$(in_main#0)<k#1>}.next|))
(define-fun .def_196 () Bool (and .def_114 .def_195))
(define-fun .def_20 () (Array Int Int) (! |!{$(in_main#0)<array.1>}| :next |!{$(in_main#0)<array.1>}.next|))
(define-fun .def_116 () Bool (= .def_20 |!{$(in_main#0)<array.1>}.next|))
(define-fun .def_197 () Bool (and .def_116 .def_196))
(define-fun .def_181 () Bool (<= .def_8 .def_16))
(define-fun .def_198 () Bool (and .def_181 .def_197))
(define-fun .def_203 () Bool (and .def_198 .def_202))
(define-fun .def_91 () Bool (= !pc.next 75))
(define-fun .def_200 () Bool (and .def_91 .def_199))
(define-fun .def_183 () (Array Int Int) (store .def_20 .def_16 |!{$(in_main#0)<$(in___VERIFIER_nondet_int#5)<h#<__VERIFIER_nondet_int.return>>>}|))
(define-fun .def_190 () Bool (= |!{$(in_main#0)<array.1>}.next| .def_183))
(define-fun .def_185 () Int (* (- 1) |!{$(in_main#0)<k>}.next|))
(define-fun .def_186 () Int (+ .def_16 .def_185))
(define-fun .def_187 () Bool (= .def_186 (- 1)))
(define-fun .def_14 () Int (! |!{$(in_main#0)<i>}| :next |!{$(in_main#0)<i>}.next|))
(define-fun .def_110 () Bool (= .def_14 |!{$(in_main#0)<i>}.next|))
(define-fun .def_121 () Bool (and .def_110 .def_120))
(define-fun .def_188 () Bool (and .def_121 .def_187))
(define-fun .def_189 () Bool (and .def_114 .def_188))
(define-fun .def_191 () Bool (and .def_189 .def_190))
(define-fun .def_182 () Bool (not .def_181))
(define-fun .def_192 () Bool (and .def_182 .def_191))
(define-fun .def_201 () Bool (and .def_192 .def_200))
(define-fun .def_204 () Bool (or .def_201 .def_203))
(define-fun .def_173 () Bool (= .def_44 95))
(define-fun .def_144 () Bool (= !pc.next 109))
(define-fun .def_177 () Bool (and .def_144 .def_173))
(define-fun .def_168 () Bool (= .def_10 |!{$(in_main#0)<k#1>}.next|))
(define-fun .def_122 () Bool (and .def_112 .def_121))
(define-fun .def_169 () Bool (and .def_122 .def_168))
(define-fun .def_170 () Bool (and .def_116 .def_169))
(define-fun .def_155 () Bool (<= .def_12 .def_14))
(define-fun .def_171 () Bool (and .def_155 .def_170))
(define-fun .def_178 () Bool (and .def_171 .def_177))
(define-fun .def_175 () Bool (and .def_173 .def_174))
(define-fun .def_157 () (Array Int Int) (store .def_20 .def_14 0))
(define-fun .def_165 () Bool (= |!{$(in_main#0)<array.1>}.next| .def_157))
(define-fun .def_159 () Int (* (- 1) |!{$(in_main#0)<i>}.next|))
(define-fun .def_160 () Int (+ .def_14 .def_159))
(define-fun .def_161 () Bool (= .def_160 (- 1)))
(define-fun .def_162 () Bool (and .def_120 .def_161))
(define-fun .def_163 () Bool (and .def_112 .def_162))
(define-fun .def_164 () Bool (and .def_114 .def_163))
(define-fun .def_166 () Bool (and .def_164 .def_165))
(define-fun .def_156 () Bool (not .def_155))
(define-fun .def_167 () Bool (and .def_156 .def_166))
(define-fun .def_176 () Bool (and .def_167 .def_175))
(define-fun .def_179 () Bool (or .def_176 .def_178))
(define-fun .def_148 () Bool (= !pc.next 0))
(define-fun .def_139 () Bool (= .def_44 109))
(define-fun .def_149 () Bool (and .def_139 .def_148))
(define-fun .def_94 () Bool (<= .def_12 .def_18))
(define-fun .def_131 () Bool (and .def_94 .def_104))
(define-fun .def_132 () Bool (and .def_106 .def_131))
(define-fun .def_133 () Bool (and .def_108 .def_132))
(define-fun .def_134 () Bool (and .def_110 .def_133))
(define-fun .def_135 () Bool (and .def_112 .def_134))
(define-fun .def_136 () Bool (and .def_114 .def_135))
(define-fun .def_137 () Bool (and .def_116 .def_136))
(define-fun .def_150 () Bool (and .def_137 .def_149))
(define-fun .def_145 () Bool (and .def_139 .def_144))
(define-fun .def_124 () Int (* (- 1) |!{$(in_main#0)<k#1>}.next|))
(define-fun .def_125 () Int (+ .def_18 .def_124))
(define-fun .def_126 () Bool (= .def_125 (- 1)))
(define-fun .def_127 () Bool (and .def_122 .def_126))
(define-fun .def_128 () Bool (and .def_116 .def_127))
(define-fun .def_96 () Int (select .def_20 .def_18))
(define-fun .def_97 () Bool (= .def_96 0))
(define-fun .def_98 () Int (ite .def_97 1 0))
(define-fun .def_99 () Bool (= .def_98 0))
(define-fun .def_100 () Bool (not .def_99))
(define-fun .def_129 () Bool (and .def_100 .def_128))
(define-fun .def_95 () Bool (not .def_94))
(define-fun .def_130 () Bool (and .def_95 .def_129))
(define-fun .def_146 () Bool (and .def_130 .def_145))
(define-fun .def_141 () Bool (= !pc.next 129))
(define-fun .def_142 () Bool (and .def_139 .def_141))
(define-fun .def_105 () Bool (and .def_99 .def_104))
(define-fun .def_107 () Bool (and .def_105 .def_106))
(define-fun .def_109 () Bool (and .def_107 .def_108))
(define-fun .def_111 () Bool (and .def_109 .def_110))
(define-fun .def_113 () Bool (and .def_111 .def_112))
(define-fun .def_115 () Bool (and .def_113 .def_114))
(define-fun .def_117 () Bool (and .def_115 .def_116))
(define-fun .def_118 () Bool (and .def_95 .def_117))
(define-fun .def_143 () Bool (and .def_118 .def_142))
(define-fun .def_147 () Bool (or .def_143 .def_146))
(define-fun .def_151 () Bool (or .def_147 .def_150))
(define-fun .def_92 () Bool (and .def_47 .def_91))
(define-fun .def_86 () Bool (= |!{$(in_main#0)<array.1>}.next| |%{$(in_main#0)<array.1>}#1|))
(define-fun .def_84 () Bool (= |!{$(in_main#0)<k#1>}.next| |%{$(in_main#0)<k#1>}#1|))
(define-fun .def_82 () Bool (= |!{$(in_main#0)<k>}.next| 0))
(define-fun .def_80 () Bool (= |!{$(in_main#0)<i>}.next| |%{$(in_main#0)<i>}#1|))
(define-fun .def_78 () Bool (= |!{$(in_main#0)<end>}.next| |!{$(in_main#0)<$(in___VERIFIER_nondet_int#3)<h#<__VERIFIER_nondet_int.return>>>}|))
(define-fun .def_76 () Bool (= |!{$(in_main#0)<begin>}.next| |!{$(in_main#0)<$(in___VERIFIER_nondet_int#2)<h#<__VERIFIER_nondet_int.return>>>}|))
(define-fun .def_75 () Bool (= |!{$(in_main#0)<N>}.next| |!{$(in_main#0)<$(in___VERIFIER_nondet_int#0)<h#<__VERIFIER_nondet_int.return>>>}|))
(define-fun .def_77 () Bool (and .def_75 .def_76))
(define-fun .def_79 () Bool (and .def_77 .def_78))
(define-fun .def_81 () Bool (and .def_79 .def_80))
(define-fun .def_83 () Bool (and .def_81 .def_82))
(define-fun .def_85 () Bool (and .def_83 .def_84))
(define-fun .def_87 () Bool (and .def_85 .def_86))
(define-fun .def_69 () Bool (<= |!{$(in_main#0)<$(in___VERIFIER_nondet_int#3)<h#<__VERIFIER_nondet_int.return>>>}| |!{$(in_main#0)<$(in___VERIFIER_nondet_int#0)<h#<__VERIFIER_nondet_int.return>>>}|))
(define-fun .def_67 () Bool (<= |!{$(in_main#0)<$(in___VERIFIER_nondet_int#2)<h#<__VERIFIER_nondet_int.return>>>}| |!{$(in_main#0)<$(in___VERIFIER_nondet_int#3)<h#<__VERIFIER_nondet_int.return>>>}|))
(define-fun .def_66 () Bool (<= 0 |!{$(in_main#0)<$(in___VERIFIER_nondet_int#2)<h#<__VERIFIER_nondet_int.return>>>}|))
(define-fun .def_68 () Bool (and .def_66 .def_67))
(define-fun .def_70 () Bool (and .def_68 .def_69))
(define-fun .def_71 () Int (ite .def_70 1 0))
(define-fun .def_72 () Bool (= .def_71 0))
(define-fun .def_73 () Bool (not .def_72))
(define-fun .def_88 () Bool (and .def_73 .def_87))
(define-fun .def_61 () Bool (<= |!{$(in_main#0)<$(in___VERIFIER_nondet_int#0)<h#<__VERIFIER_nondet_int.return>>>}| 0))
(define-fun .def_62 () Bool (not .def_61))
(define-fun .def_63 () Int (ite .def_62 1 0))
(define-fun .def_64 () Bool (= .def_63 0))
(define-fun .def_65 () Bool (not .def_64))
(define-fun .def_89 () Bool (and .def_65 .def_88))
(define-fun .def_93 () Bool (and .def_89 .def_92))
(define-fun .def_152 () Bool (or .def_93 .def_151))
(define-fun .def_180 () Bool (or .def_152 .def_179))
(define-fun .def_205 () Bool (! (or .def_180 .def_204) :trans true))
(define-fun .def_153 () Bool (= .def_44 129))
(define-fun .def_206 () Bool (! (not .def_153) :invar-property 0 :invar-property-name ||))
(assert true)
